100 151874
76 26 18 70 97 79 39 60 69 94 37 71 78 16 1 57 4 90 72 66 3 12 59 43 15 9 48 99 89 75 38 42 49 84 92 25 82 95 41 62 87 6 21 33 29 7 2 40 11 32 36 22 52 19 91 83 77 17 5 24 55 63 34 14 47 30 61 45 73 27 46 56 54 13 88 100 50 58 8 44 85 81 74 80 31 93 98 68 51 96 64 20 65 35 86 10 53 67 23 28 
